6231776811425953960504,5,1,2,010,8,1,2,012,3,1,2,09,5,1,2,08,14,1,2,06,15,1,2,05,6,1,2,013,5,1,2,05,9,1,2,05,13,1,2,03,1,1,2,06,1,1,2,010,6,1,2,012,3,1,2,08,14,1,2,02,3,1,2,010,14,1,2,05,2,1,2,012,5,1,2,06,5,1,2,013,9,1,2,04,14,1,2,014,13,1,2,09,9,1,2,013,5,1,2,012,7,1,2,03,6,1,2,015,8,1,2,05,4,1,2,02,8,1,2,015,15,1,2,01,6,1,2,03,4,1,2,013,3,1,2,02,4,1,2,09,15,1,2,015,10,1,2,012,9,1,2,07,12,1,2,013,13,1,2,013,1,1,2,03,4,1,2,015,14,1,2,01,5,1,2,09,4,1,2,08,6,1,2,05,7,1,2,014,12,1,2,011,8,1,2,015,11,1,2,0